<number of tasks>
20

<cycle time>
1000

<order strength>
0,532


<task times>
1 227
2 554
3 207
4 525
5 173
6 128
7 106
8 56
9 372
10 395
11 216
12 169
13 182
14 127
15 88
16 133
17 456
18 206
19 23
20 272

<precedence relations>
1,2
1,3
1,4
1,5
1,6
2,11
3,7
3,9
3,10
6,8
7,11
8,11
9,11
10,11
10,12
11,13
11,14
11,15
11,16
11,17
14,18
15,18
16,19
16,20
17,20

<end>
